c FILE /home/rafael/Documents/HappySet/MIHS/inputs/happygen/output/graph_d_regular_k10_p0.4_v100_20241127_084117.txt
c SOURCE This is a d-regular graph formed for the happy graph colouring problem.
c DESCRIPTION It was generated using the problem generator of Rhyd Lewis
c
c GRAPH STATS
c Seed                             = -567865790
c Number of Nodes                  = 100
c Number of colours k              = 10
c Number of pre-assignments        = 40
c Degree of all vertices           = 6
c Density                          = 0.0606061
c 
c The degrees of nodes 1 to 100, respectively, are as follows 
c [6, 6, 6, 6, 6, 6, 6, 6, 6, 6, 6, 6, 6, 6, 6, 6, 6, 6, 6, 6, 6, 6, 6, 6, 6, 6, 
c  6, 6, 6, 6, 6, 6, 6, 6, 6, 6, 6, 6, 6, 6, 6, 6, 6, 6, 6, 6, 6, 6, 6, 6, 6, 
c  6, 6, 6, 6, 6, 6, 6, 6, 6, 6, 6, 6, 6, 6, 6, 6, 6, 6, 6, 6, 6, 6, 6, 6, 6, 
c  6, 6, 6, 6, 6, 6, 6, 6, 6, 6, 6, 6, 6, 6, 6, 6, 6, 6, 6, 6, 6, 6, 6, 6] 
c  
p edge 100 300 10
e 1 8
e 1 25
e 1 27
e 1 31
e 1 51
e 1 65
e 2 15
e 2 31
e 2 49
e 2 63
e 2 66
e 2 82
e 3 36
e 3 44
e 3 47
e 3 55
e 3 78
e 3 95
e 4 6
e 4 36
e 4 44
e 4 58
e 4 70
e 4 76
e 5 6
e 5 7
e 5 31
e 5 32
e 5 76
e 5 83
e 6 12
e 6 30
e 6 87
e 6 97
e 7 13
e 7 56
e 7 65
e 7 85
e 7 87
e 8 18
e 8 21
e 8 30
e 8 77
e 8 93
e 9 22
e 9 29
e 9 46
e 9 62
e 9 79
e 9 98
e 10 57
e 10 81
e 10 86
e 10 87
e 10 92
e 10 96
e 11 31
e 11 33
e 11 35
e 11 41
e 11 42
e 11 56
e 12 24
e 12 45
e 12 48
e 12 53
e 12 73
e 13 28
e 13 46
e 13 49
e 13 51
e 13 100
e 14 16
e 14 32
e 14 60
e 14 65
e 14 70
e 14 76
e 15 17
e 15 35
e 15 40
e 15 50
e 15 80
e 16 19
e 16 20
e 16 46
e 16 60
e 16 92
e 17 36
e 17 37
e 17 71
e 17 73
e 17 91
e 18 29
e 18 42
e 18 57
e 18 59
e 18 90
e 19 41
e 19 48
e 19 49
e 19 63
e 19 86
e 20 26
e 20 29
e 20 32
e 20 39
e 20 71
e 21 26
e 21 30
e 21 61
e 21 68
e 21 85
e 22 26
e 22 47
e 22 59
e 22 74
e 22 84
e 23 42
e 23 52
e 23 67
e 23 75
e 23 91
e 23 96
e 24 34
e 24 39
e 24 43
e 24 86
e 24 99
e 25 50
e 25 52
e 25 58
e 25 74
e 25 93
e 26 82
e 26 84
e 26 95
e 27 38
e 27 72
e 27 76
e 27 95
e 27 97
e 28 38
e 28 49
e 28 57
e 28 88
e 28 97
e 29 33
e 29 66
e 29 93
e 30 79
e 30 88
e 30 91
e 31 83
e 31 90
e 32 54
e 32 69
e 32 92
e 33 39
e 33 41
e 33 48
e 33 58
e 34 41
e 34 54
e 34 63
e 34 66
e 34 75
e 35 55
e 35 60
e 35 70
e 35 87
e 36 37
e 36 73
e 36 100
e 37 42
e 37 63
e 37 65
e 37 89
e 38 41
e 38 67
e 38 75
e 38 80
e 39 64
e 39 84
e 39 95
e 40 46
e 40 47
e 40 69
e 40 84
e 40 85
e 41 60
e 42 84
e 42 90
e 43 54
e 43 58
e 43 59
e 43 75
e 43 90
e 44 51
e 44 61
e 44 62
e 44 75
e 45 53
e 45 59
e 45 68
e 45 77
e 45 97
e 46 74
e 46 83
e 47 63
e 47 85
e 47 100
e 48 53
e 48 57
e 48 70
e 49 51
e 49 78
e 50 65
e 50 79
e 50 96
e 50 97
e 51 61
e 51 89
e 52 68
e 52 81
e 52 93
e 52 94
e 53 71
e 53 77
e 53 98
e 54 76
e 54 91
e 54 92
e 55 66
e 55 80
e 55 86
e 55 89
e 56 58
e 56 62
e 56 82
e 56 99
e 57 62
e 57 89
e 58 82
e 59 75
e 59 96
e 60 68
e 60 72
e 61 66
e 61 74
e 61 85
e 62 67
e 62 100
e 63 64
e 64 72
e 64 77
e 64 84
e 64 92
e 65 72
e 66 69
e 67 77
e 67 78
e 67 86
e 68 88
e 68 93
e 69 72
e 69 83
e 69 92
e 70 87
e 70 94
e 71 81
e 71 86
e 71 88
e 72 81
e 73 79
e 73 82
e 73 95
e 74 81
e 74 93
e 76 98
e 77 87
e 78 80
e 78 94
e 78 98
e 79 88
e 79 89
e 80 90
e 80 99
e 81 89
e 82 88
e 83 94
e 83 97
e 85 99
e 90 91
e 91 94
e 94 96
e 95 100
e 96 98
e 98 99
e 99 100
n 3 3
n 4 8
n 8 4
n 11 7
n 13 5
n 20 3
n 21 4
n 22 5
n 23 2
n 24 4
n 25 8
n 27 10
n 28 5
n 29 3
n 32 3
n 40 10
n 41 7
n 45 5
n 49 5
n 50 8
n 53 5
n 54 3
n 55 3
n 58 8
n 59 5
n 60 7
n 62 2
n 63 9
n 64 9
n 65 8
n 66 3
n 67 2
n 81 3
n 82 8
n 83 10
n 87 1
n 89 3
n 90 6
n 94 10
n 99 4
